words_hard_train/3970.qaiger
aag 113 16 0 1 97
2
4
12
14
18
26
36
48
50
62
64
76
78
90
92
112
227
6 2 4
8 3 5
10 7 9
16 12 14
20 14 18
22 15 19
24 21 23
28 25 27
30 16 29
32 24 26
34 31 33
38 23 37
40 22 36
42 39 41
44 35 42
46 45 41
52 49 50
54 48 51
56 53 55
58 47 56
60 59 55
66 63 64
68 62 65
70 67 69
72 61 70
74 73 69
80 77 78
82 76 79
84 81 83
86 75 84
88 87 83
94 91 92
96 90 93
98 95 97
100 89 98
102 101 97
104 11 103
106 10 102
108 105 107
110 109 4
114 22 113
116 115 50
118 114 51
120 117 119
122 34 43
124 123 45
126 16 33
128 127 29
130 26 15
132 128 131
134 23 112
136 135 115
138 132 136
140 125 139
142 133 137
144 141 143
146 46 57
148 147 59
150 144 148
152 121 151
154 145 149
156 153 155
158 60 71
160 159 73
162 119 64
164 118 65
166 163 165
168 160 166
170 157 169
172 161 167
174 171 173
176 74 85
178 177 87
180 165 78
182 164 79
184 181 183
186 178 184
188 175 187
190 179 185
192 189 191
194 88 99
196 195 101
198 183 92
200 182 93
202 199 201
204 196 202
206 193 205
208 197 203
210 207 209
212 210 200
214 110 212
216 111 213
218 108 5
220 211 201
222 219 221
224 216 223
226 215 225
i0 1 x1[7]
i1 2 y1[7]
i2 1 x1[0]
i3 2 y1[0]
i4 2 y1[1]
i5 1 x1[1]
i6 1 x1[2]
i7 1 x1[3]
i8 2 y1[3]
i9 1 x1[4]
i10 2 y1[4]
i11 1 x1[5]
i12 2 y1[5]
i13 1 x1[6]
i14 2 y1[6]
i15 2 y1[2]
o0 bv[0]
c
simplified
  <
    subtract
      1 x1
      or
        << 2
          1
        2 y1
    2 y1
