words_hard_train/3970.qaiger.qdimacs
p cnf 113 292
a 1 6 38 13 45 18 24 31 0
e 2 3 4 5 7 8 9 10 11 12 14 15 16 17 19 20 21 22 23 25 26 27 28 29 30 32 33 34 35 36 37 39 40 41 42 43 44 46 47 48 49 50 51 52 53 54 55 56 57 58 59 60 61 62 63 64 65 66 67 68 69 70 71 72 73 74 75 76 77 78 79 80 81 82 83 84 85 86 87 88 89 90 91 92 93 94 95 96 97 98 99 100 101 102 103 104 105 106 107 108 109 110 111 112 113 0
-1 -2 3 0
1 -3 0
2 -3 0
1 2 4 0
-1 -4 0
-2 -4 0
3 4 5 0
-3 -5 0
-4 -5 0
-6 -7 8 0
6 -8 0
7 -8 0
-7 -9 10 0
7 -10 0
9 -10 0
7 9 11 0
-7 -11 0
-9 -11 0
10 11 12 0
-10 -12 0
-11 -12 0
12 13 14 0
-12 -14 0
-13 -14 0
-8 14 15 0
8 -15 0
-14 -15 0
-12 -13 16 0
12 -16 0
13 -16 0
15 16 17 0
-15 -17 0
-16 -17 0
11 18 19 0
-11 -19 0
-18 -19 0
-11 -18 20 0
11 -20 0
18 -20 0
19 20 21 0
-19 -21 0
-20 -21 0
17 -21 22 0
-17 -22 0
21 -22 0
22 20 23 0
-22 -23 0
-20 -23 0
24 -25 26 0
-24 -26 0
25 -26 0
-24 25 27 0
24 -27 0
-25 -27 0
26 27 28 0
-26 -28 0
-27 -28 0
23 -28 29 0
-23 -29 0
28 -29 0
29 27 30 0
-29 -30 0
-27 -30 0
31 -32 33 0
-31 -33 0
32 -33 0
-31 32 34 0
31 -34 0
-32 -34 0
33 34 35 0
-33 -35 0
-34 -35 0
30 -35 36 0
-30 -36 0
35 -36 0
36 34 37 0
-36 -37 0
-34 -37 0
38 -39 40 0
-38 -40 0
39 -40 0
-38 39 41 0
38 -41 0
-39 -41 0
40 41 42 0
-40 -42 0
-41 -42 0
37 -42 43 0
-37 -43 0
42 -43 0
43 41 44 0
-43 -44 0
-41 -44 0
45 -46 47 0
-45 -47 0
46 -47 0
-45 46 48 0
45 -48 0
-46 -48 0
47 48 49 0
-47 -49 0
-48 -49 0
44 -49 50 0
-44 -50 0
49 -50 0
50 48 51 0
-50 -51 0
-48 -51 0
5 51 52 0
-5 -52 0
-51 -52 0
-5 -51 53 0
5 -53 0
51 -53 0
52 53 54 0
-52 -54 0
-53 -54 0
54 -2 55 0
-54 -55 0
2 -55 0
-11 56 57 0
11 -57 0
-56 -57 0
57 -25 58 0
-57 -58 0
25 -58 0
-57 25 59 0
57 -59 0
-25 -59 0
58 59 60 0
-58 -60 0
-59 -60 0
-17 21 61 0
17 -61 0
-21 -61 0
61 22 62 0
-61 -62 0
-22 -62 0
-8 16 63 0
8 -63 0
-16 -63 0
63 14 64 0
-63 -64 0
-14 -64 0
-13 7 65 0
13 -65 0
-7 -65 0
-64 65 66 0
64 -66 0
-65 -66 0
11 -56 67 0
-11 -67 0
56 -67 0
67 57 68 0
-67 -68 0
-57 -68 0
-66 -68 69 0
66 -69 0
68 -69 0
62 69 70 0
-62 -70 0
-69 -70 0
66 68 71 0
-66 -71 0
-68 -71 0
70 71 72 0
-70 -72 0
-71 -72 0
-23 28 73 0
23 -73 0
-28 -73 0
73 29 74 0
-73 -74 0
-29 -74 0
-72 -74 75 0
72 -75 0
74 -75 0
60 75 76 0
-60 -76 0
-75 -76 0
72 74 77 0
-72 -77 0
-74 -77 0
76 77 78 0
-76 -78 0
-77 -78 0
-30 35 79 0
30 -79 0
-35 -79 0
79 36 80 0
-79 -80 0
-36 -80 0
59 -32 81 0
-59 -81 0
32 -81 0
-59 32 82 0
59 -82 0
-32 -82 0
81 82 83 0
-81 -83 0
-82 -83 0
-80 -83 84 0
80 -84 0
83 -84 0
78 84 85 0
-78 -85 0
-84 -85 0
80 83 86 0
-80 -86 0
-83 -86 0
85 86 87 0
-85 -87 0
-86 -87 0
-37 42 88 0
37 -88 0
-42 -88 0
88 43 89 0
-88 -89 0
-43 -89 0
82 -39 90 0
-82 -90 0
39 -90 0
-82 39 91 0
82 -91 0
-39 -91 0
90 91 92 0
-90 -92 0
-91 -92 0
-89 -92 93 0
89 -93 0
92 -93 0
87 93 94 0
-87 -94 0
-93 -94 0
89 92 95 0
-89 -95 0
-92 -95 0
94 95 96 0
-94 -96 0
-95 -96 0
-44 49 97 0
44 -97 0
-49 -97 0
97 50 98 0
-97 -98 0
-50 -98 0
91 -46 99 0
-91 -99 0
46 -99 0
-91 46 100 0
91 -100 0
-46 -100 0
99 100 101 0
-99 -101 0
-100 -101 0
-98 -101 102 0
98 -102 0
101 -102 0
96 102 103 0
-96 -103 0
-102 -103 0
98 101 104 0
-98 -104 0
-101 -104 0
103 104 105 0
-103 -105 0
-104 -105 0
-105 -100 106 0
105 -106 0
100 -106 0
-55 -106 107 0
55 -107 0
106 -107 0
55 106 108 0
-55 -108 0
-106 -108 0
-54 2 109 0
54 -109 0
-2 -109 0
105 100 110 0
-105 -110 0
-100 -110 0
109 110 111 0
-109 -111 0
-110 -111 0
-108 111 112 0
108 -112 0
-111 -112 0
107 112 113 0
-107 -113 0
-112 -113 0
-113 0
